nbGenes = 10;
preference = [[0 71 56 63 72 51 18 47 30 52 ]
[29 0 75 3 91 67 45 99 88 1 ]
[44 25 0 51 26 47 37 5 70 54 ]
[37 97 49 0 35 20 31 56 19 45 ]
[28 9 74 65 0 9 29 35 11 46 ]
[49 33 53 80 91 0 64 45 50 6 ]
[82 55 63 69 71 36 0 93 80 13 ]
[53 1 95 44 65 55 7 0 77 99 ]
[70 12 30 81 89 50 20 23 0 2 ]
[48 99 46 55 54 94 87 1 98 0 ]
];
